\ Practica 2, ejercicio 1)b).
Minimize
4 x1 + x2
Subject To
3 x1 + x2 >= 6
4 x1 + x2 >= 12
\ La tercera restriccion la podemos agregar directamente como una cota sobre la variable.
\ Agregarla como restriccion produce exactamente el mismo resultado.
Bounds
2 <= x1
End
